
List of user-set options:

                                    Name   Value                used
                           compl_inf_tol = 1                     yes
                         constr_viol_tol = 1                     yes
                            dual_inf_tol = 1000                  yes
                           linear_solver = ma97                  yes
                              ma86_small = 1e-30                  no
                                  ma86_u = 0.0001                 no
                              ma97_order = best                  yes
                              ma97_small = 1e-30                 yes
                            ma97_switch1 = at_start              yes
                            ma97_switch2 = od_hd_reuse           yes
                                  ma97_u = 1e-06                 yes
                               ma97_umax = 0.5                   yes
                                max_iter = 1000                  yes
                    max_refinement_steps = 20                    yes
                    min_refinement_steps = 5                     yes
                                 mu_init = 1e-06                 yes
           mu_superlinear_decrease_power = 1.25                  yes
                   nlp_scaling_min_value = 1e-08                 yes
                        option_file_name = Preset_Case_784_pf.opt  yes
                             output_file = ./tmp/Preset_Case_784_pf.output  yes
                      print_user_options = yes                   yes
        required_infeasibility_reduction = 1                      no
                                     tol = 1e-08                 yes
                   warm_start_bound_frac = 1e-20                 yes
                   warm_start_bound_push = 1e-20                 yes
                   warm_start_init_point = yes                   yes
              warm_start_mult_bound_push = 1e-20                 yes
                warm_start_mult_init_max = 1e+40                 yes
             warm_start_slack_bound_frac = 1e-20                 yes
             warm_start_slack_bound_push = 1e-20                 yes

******************************************************************************
This program contains Ipopt, a library for large-scale nonlinear optimization.
 Ipopt is released as open source code under the Eclipse Public License (EPL).
         For more information visit http://projects.coin-or.org/Ipopt
******************************************************************************

This is Ipopt version 3.12.10, running with linear solver ma97.

Number of nonzeros in equality constraint Jacobian...:   123442
Number of nonzeros in inequality constraint Jacobian.:      213
Number of nonzeros in Lagrangian Hessian.............:    49069

Total number of variables............................:    31591
                     variables with only lower bounds:    12912
                variables with lower and upper bounds:    15130
                     variables with only upper bounds:        0
Total number of equality constraints.................:    31483
Total number of inequality constraints...............:       25
        inequality constraints with only lower bounds:        4
   inequality constraints with lower and upper bounds:        0
        inequality constraints with only upper bounds:       21

iter    objective    inf_pr   inf_du lg(mu)  ||d||  lg(rg) alpha_du alpha_pr  ls
   0 -5.3789344e+00 4.00e-03 1.02e+00  -6.0 0.00e+00    -  0.00e+00 0.00e+00   0
   1 -5.3781554e+00 2.19e-01 3.37e+00  -6.0 3.20e+05    -  1.01e-04 2.25e-04h  3
   2 -5.3798479e+00 2.19e-01 1.47e+01  -6.0 4.33e+03    -  6.64e-02 1.67e-03h  1
   3 -5.4587891e+00 5.51e+00 1.10e+02  -6.0 5.09e+04    -  1.22e-01 1.22e-02f  1
   4 -5.7239341e+00 2.91e+01 2.30e+03  -6.0 4.52e+03    -  4.11e-01 3.01e-01h  1
   5 -5.9056816e+00 2.41e+01 1.24e+03  -6.0 2.62e+03    -  7.53e-03 3.20e-01h  1
   6 -5.9484899e+00 2.14e+01 1.12e+04  -6.0 1.82e+03    -  1.43e-02 1.75e-01h  1
   7 -6.1390129e+00 6.41e+01 2.26e+04  -6.0 2.63e+03    -  2.07e-01 7.49e-01h  1
   8 -6.0599604e+00 2.33e-01 5.20e+05  -6.0 5.76e+00  -4.0 4.59e-01 1.00e+00h  1
   9 -6.0654549e+00 2.74e-02 2.39e+05  -6.0 3.99e+00  -4.5 2.16e-01 8.88e-01h  1
iter    objective    inf_pr   inf_du lg(mu)  ||d||  lg(rg) alpha_du alpha_pr  ls
  10 -6.0923175e+00 8.88e-01 1.39e+05  -6.0 1.35e+03    -  3.65e-01 2.56e-01f  1
  11 -6.1263475e+00 1.32e+01 1.88e+05  -6.0 2.41e+03    -  5.54e-02 7.27e-01h  1
  12 -6.1444928e+00 3.29e+00 1.41e+05  -6.0 8.39e+02    -  3.08e-01 7.49e-01h  1
  13 -6.1429111e+00 4.07e+00 8.26e+04  -6.0 5.08e+02    -  4.16e-01 4.58e-01h  1
  14 -6.1412182e+00 2.24e+00 2.29e+04  -6.0 1.71e+02    -  7.20e-01 5.23e-01h  1
  15 -6.1430199e+00 2.27e+00 2.24e+04  -6.0 3.02e+04    -  6.44e-02 4.39e-03h  1
  16 -6.1458010e+00 1.98e+00 2.13e+04  -6.0 8.43e+02    -  4.05e-02 1.23e-01h  1
  17 -6.1500424e+00 1.45e+00 7.45e+03  -6.0 2.22e+02    -  6.20e-01 1.00e+00h  1
  18 -6.1514410e+00 1.25e+00 2.40e+04  -6.0 2.15e+02    -  7.04e-01 1.54e-01h  1
  19 -6.1607790e+00 1.28e+00 7.63e+03  -6.0 2.11e+02    -  7.75e-01 1.00e+00h  1
iter    objective    inf_pr   inf_du lg(mu)  ||d||  lg(rg) alpha_du alpha_pr  ls
  20 -6.1650640e+00 9.90e-01 1.26e+05  -6.0 2.02e+02    -  1.00e+00 3.18e-01h  1
  21 -6.1778164e+00 1.07e+00 3.63e+04  -6.0 2.07e+02    -  5.79e-01 8.93e-01h  1
  22 -6.1843270e+00 8.75e-01 8.83e+05  -6.0 2.29e+02    -  9.91e-02 3.55e-01h  1
  23 -6.1843532e+00 8.75e-01 8.84e+05  -6.0 7.46e+03    -  2.04e-02 4.82e-05h  1
  24 -6.1827162e+00 7.62e-01 2.30e+07  -6.0 2.33e+02  -5.0 1.26e-05 1.91e-01h  1
  25 -6.1889121e+00 5.08e-01 1.53e+07  -6.0 1.24e+01  -5.4 3.92e-01 3.34e-01h  1
  26 -6.1931098e+00 8.93e-01 4.17e+06  -6.0 2.23e+02    -  5.00e-02 7.28e-01f  1
  27 -6.1901038e+00 1.70e-01 9.32e+03  -6.0 1.02e+02    -  1.28e-01 1.00e+00h  1
  28 -6.1913404e+00 4.98e-03 2.74e+02  -6.0 1.25e+01  -5.9 8.73e-01 1.00e+00h  1
  29 -6.1928246e+00 2.83e-02 2.95e-01  -6.0 2.97e+01  -6.4 1.00e+00 1.00e+00h  1
iter    objective    inf_pr   inf_du lg(mu)  ||d||  lg(rg) alpha_du alpha_pr  ls
  30 -6.1951928e+00 1.08e-01 4.84e-01  -6.0 5.81e+01  -6.9 1.00e+00 1.00e+00h  1
  31 -6.1969868e+00 1.30e-01 1.38e+01  -6.0 6.38e+01  -7.3 5.79e-01 1.00e+00h  1
  32 -6.1967967e+00 1.44e-02 1.63e-01  -6.0 3.03e+01  -6.9 1.00e+00 1.00e+00h  1
  33 -6.1989966e+00 8.35e-01 2.07e+01  -6.0 2.25e+02  -7.4 5.05e-01 1.00e+00h  1
  34 -6.2030330e+00 1.28e+00 1.43e+01  -6.0 2.39e+04  -7.9 1.06e-02 7.95e-03h  1
  35 -6.2129045e+00 1.08e+00 1.17e+01  -6.0 3.48e+02  -7.4 1.00e+00 1.00e+00f  1
  36 -6.2407257e+00 4.96e+00 6.84e+01  -6.0 4.75e+03    -  1.18e-01 2.79e-01h  1
  37 -6.2405842e+00 4.73e+00 6.51e+01  -6.0 3.08e+03    -  3.06e-01 4.63e-02h  5
  38 -6.2395240e+00 9.96e-01 5.48e+01  -6.0 1.15e+03    -  1.00e+00 1.00e+00h  1
  39 -6.2393035e+00 1.01e+00 4.82e+01  -6.0 8.08e+02    -  1.00e+00 1.21e-01h  4
iter    objective    inf_pr   inf_du lg(mu)  ||d||  lg(rg) alpha_du alpha_pr  ls
  40 -6.2388747e+00 1.24e+00 3.61e+01  -6.0 7.36e+02    -  7.20e-01 2.50e-01h  3
  41 -6.2374300e+00 2.57e-02 2.52e-01  -6.0 3.81e+01    -  1.00e+00 1.00e+00h  1
  42 -6.2374119e+00 1.16e-03 4.39e-04  -6.0 9.09e+00    -  1.00e+00 1.00e+00h  1
  43 -6.2374117e+00 8.28e-09 1.67e-09  -6.0 2.30e-02    -  1.00e+00 1.00e+00h  1
  44 -6.2374866e+00 1.83e-02 4.95e+01  -7.5 4.11e+01    -  9.54e-01 7.83e-01h  1
  45 -6.2374890e+00 3.81e-03 9.01e+00  -7.5 9.54e+00    -  1.00e+00 8.56e-01h  1
  46 -6.2374883e+00 3.15e-05 6.30e-03  -7.5 1.33e+00    -  1.00e+00 1.00e+00h  1
  47 -6.2374883e+00 2.95e-10 1.68e-09  -7.5 9.04e-04    -  1.00e+00 1.00e+00h  1
  48 -6.2374899e+00 2.27e-05 6.83e-01  -9.0 1.34e+00    -  9.21e-01 8.46e-01h  1
  49 -6.2374902e+00 7.51e-07 3.88e-01  -9.0 2.06e-01    -  9.04e-01 1.00e+00f  1
iter    objective    inf_pr   inf_du lg(mu)  ||d||  lg(rg) alpha_du alpha_pr  ls
  50 -6.2374902e+00 4.26e-10 1.23e-08  -9.0 3.86e-05    -  1.00e+00 1.00e+00h  1
  51 -6.2374902e+00 4.28e-10 1.45e-10  -9.0 8.68e-06    -  1.00e+00 1.00e+00h  1

Number of Iterations....: 51

                                   (scaled)                 (unscaled)
Objective...............:  -4.8730391843994507e+00   -6.2374901560312965e+00
Dual infeasibility......:   1.4489868418687238e-10    1.8547031575919664e-10
Constraint violation....:   4.2782965939489742e-10    4.2782965939489742e-10
Complementarity.........:   9.2509992350904284e-10    1.1841279020915749e-09
Overall NLP error.......:   9.2509992350904284e-10    1.1841279020915749e-09


Number of objective function evaluations             = 72
Number of objective gradient evaluations             = 52
Number of equality constraint evaluations            = 72
Number of inequality constraint evaluations          = 72
Number of equality constraint Jacobian evaluations   = 52
Number of inequality constraint Jacobian evaluations = 52
Number of Lagrangian Hessian evaluations             = 51
Total CPU secs in IPOPT (w/o function evaluations)   =    112.896
Total CPU secs in NLP function evaluations           =      2.046

EXIT: Optimal Solution Found.
